c Sudoku solution
p cnf 729 0
128 0
156 0
232 0
271 0
288 0
327 0
363 0
461 0
472 0
524 0
533 0
581 0
625 0
631 0
657 0
666 0
674 0
683 0
698 0
722 0
823 0
921 0
838 0
877 0
882 0
936 0
947 0
969 0
952 0
978 0
993 0
173 0
213 0
985 0
914 0
429 0
437 0
612 0
597 0
486 0
418 0
516 0
495 0
579 0
649 0
226 0
717 0
375 0
776 0
846 0
396 0
192 0
342 0
358 0
141 0
259 0
311 0
562 0
555 0
548 0
768 0
187 0
294 0
389 0
267 0
245 0
164 0
334 0
865 0
735 0
819 0
115 0
139 0
784 0
891 0
799 0
751 0
854 0
743 0
444 0
453 0
